NAME : XML100_1375_03
DIMENSION : 101
NB_CLUSTERS : 3
CLUSTERING_ALG : KMedoids
CLUSTERING_PARAMS : k(2)
CLUSTERS
1 0
2 2 3 4 6 9 10 11 13 16 17 19 21 23 24 26 28 29 31 36 37 39 40 42 44 45 51 54 56 57 58 59 61 62 63 64 67 70 71 72 73 74 75 78 79 80 81 82 86 87 88 91 92 94 95 99 100
3 1 5 7 8 12 14 15 18 20 22 25 27 30 32 33 34 35 38 41 43 46 47 48 49 50 52 53 55 60 65 66 68 69 76 77 83 84 85 89 90 93 96 97 98
EOF